Logic Design with Verilog/lab5/part1/countones/countones/model/design_smt2.smt2
; SMT-LIBv2 description generated by Yosys 0.25+1 (git sha1 d3216593d, clang 10.0.0-4ubuntu1 -fPIC -Os)
; yosys-smt2-module countones
(declare-sort |countones_s| 0)
(declare-fun |countones_is| (|countones_s|) Bool)
(declare-fun |countones#0| (|countones_s|) (_ BitVec 1)) ; \binary_i [0]
(declare-fun |countones#1| (|countones_s|) (_ BitVec 1)) ; \binary_i [1]
(define-fun |countones#2| ((state |countones_s|)) (_ BitVec 3) (bvadd (concat #b00 (|countones#0| state)) (concat #b00 (|countones#1| state)))) ; $add$countones.sv:17$6_Y
(declare-fun |countones#3| (|countones_s|) (_ BitVec 1)) ; \binary_i [2]
(define-fun |countones#4| ((state |countones_s|)) (_ BitVec 4) (bvadd (concat #b0 (|countones#2| state)) (concat #b000 (|countones#3| state)))) ; $add$countones.sv:17$7_Y
(declare-fun |countones#5| (|countones_s|) (_ BitVec 1)) ; \binary_i [3]
(define-fun |countones#6| ((state |countones_s|)) (_ BitVec 4) (bvadd (|countones#4| state) (concat #b000 (|countones#5| state)))) ; $add$countones.sv:17$8_Y
(declare-fun |countones#7| (|countones_s|) (_ BitVec 1)) ; \binary_i [4]
(define-fun |countones#8| ((state |countones_s|)) (_ BitVec 4) (bvadd (|countones#6| state) (concat #b000 (|countones#7| state)))) ; $add$countones.sv:17$9_Y
(declare-fun |countones#9| (|countones_s|) (_ BitVec 1)) ; \binary_i [5]
(define-fun |countones#10| ((state |countones_s|)) (_ BitVec 4) (bvadd (|countones#8| state) (concat #b000 (|countones#9| state)))) ; $add$countones.sv:17$10_Y
(declare-fun |countones#11| (|countones_s|) (_ BitVec 1)) ; \binary_i [6]
(define-fun |countones#12| ((state |countones_s|)) (_ BitVec 4) (bvadd (|countones#10| state) (concat #b000 (|countones#11| state)))) ; $add$countones.sv:17$11_Y
(declare-fun |countones#13| (|countones_s|) (_ BitVec 1)) ; \binary_i [7]
(define-fun |countones#14| ((state |countones_s|)) (_ BitVec 4) (bvadd (|countones#12| state) (concat #b000 (|countones#13| state)))) ; \count_o
; yosys-smt2-output count_o 4
; yosys-smt2-wire count_o 4
(define-fun |countones_n count_o| ((state |countones_s|)) (_ BitVec 4) (|countones#14| state))
; yosys-smt2-wire count_l 4
(define-fun |countones_n count_l| ((state |countones_s|)) (_ BitVec 4) (|countones#14| state))
; yosys-smt2-input binary_i 8
; yosys-smt2-wire binary_i 8
; yosys-smt2-witness {"offset": 0, "path": ["\\binary_i"], "smtname": "binary_i", "smtoffset": 0, "type": "input", "width": 8}
(define-fun |countones_n binary_i| ((state |countones_s|)) (_ BitVec 8) (concat (|countones#13| state) (concat (|countones#11| state) (concat (|countones#9| state) (concat (|countones#7| state) (concat (|countones#5| state) (concat (|countones#3| state) (concat (|countones#1| state) (|countones#0| state)))))))))
; yosys-smt2-anyseq countones#15 1 $auto$setundef.cc:525:execute$94
; yosys-smt2-witness {"offset": 0, "path": ["\\_witness_", "\\anyseq_auto_setundef_cc_525_execute_94"], "smtname": 15, "smtoffset": 0, "type": "seq", "width": 1}
(declare-fun |countones#15| (|countones_s|) (_ BitVec 1)) ; \_witness_.anyseq_auto_setundef_cc_525_execute_94
; yosys-smt2-wire _witness_.anyseq_auto_setundef_cc_525_execute_94 1
(define-fun |countones_n _witness_.anyseq_auto_setundef_cc_525_execute_94| ((state |countones_s|)) Bool (= ((_ extract 0 0) (|countones#15| state)) #b1))
(define-fun |countones#16| ((state |countones_s|)) Bool (= (|countones#13| state) #b1)) ; $add$countones.sv:0$16_Y [0]
(define-fun |countones#17| ((state |countones_s|)) Bool (= (|countones#11| state) #b1)) ; $eqx$countones.sv:0$19_Y [0]
(define-fun |countones#18| ((state |countones_s|)) (_ BitVec 3) (bvadd (concat #b00 (ite (|countones#16| state) #b1 #b0)) (concat #b00 (ite (|countones#17| state) #b1 #b0)))) ; $add$countones.sv:0$20_Y
(define-fun |countones#19| ((state |countones_s|)) Bool (= (|countones#9| state) #b1)) ; $eqx$countones.sv:0$23_Y [0]
(define-fun |countones#20| ((state |countones_s|)) (_ BitVec 4) (bvadd (concat #b0 (|countones#18| state)) (concat #b000 (ite (|countones#19| state) #b1 #b0)))) ; $add$countones.sv:0$24_Y
(define-fun |countones#21| ((state |countones_s|)) Bool (= (|countones#7| state) #b1)) ; $eqx$countones.sv:0$27_Y [0]
(define-fun |countones#22| ((state |countones_s|)) (_ BitVec 5) (bvadd (concat #b0 (|countones#20| state)) (concat #b0000 (ite (|countones#21| state) #b1 #b0)))) ; $add$countones.sv:0$28_Y
(define-fun |countones#23| ((state |countones_s|)) Bool (= (|countones#5| state) #b1)) ; $eqx$countones.sv:0$31_Y [0]
(define-fun |countones#24| ((state |countones_s|)) (_ BitVec 6) (bvadd (concat #b0 (|countones#22| state)) (concat #b00000 (ite (|countones#23| state) #b1 #b0)))) ; $add$countones.sv:0$32_Y
(define-fun |countones#25| ((state |countones_s|)) Bool (= (|countones#3| state) #b1)) ; $eqx$countones.sv:0$35_Y [0]
(define-fun |countones#26| ((state |countones_s|)) (_ BitVec 7) (bvadd (concat #b0 (|countones#24| state)) (concat #b000000 (ite (|countones#25| state) #b1 #b0)))) ; $add$countones.sv:0$36_Y
(define-fun |countones#27| ((state |countones_s|)) Bool (= (|countones#1| state) #b1)) ; $eqx$countones.sv:0$39_Y [0]
(define-fun |countones#28| ((state |countones_s|)) (_ BitVec 8) (bvadd (concat #b0 (|countones#26| state)) (concat #b0000000 (ite (|countones#27| state) #b1 #b0)))) ; $add$countones.sv:0$40_Y
(define-fun |countones#29| ((state |countones_s|)) Bool (= (|countones#0| state) #b1)) ; $eqx$countones.sv:0$43_Y [0]
(define-fun |countones#30| ((state |countones_s|)) (_ BitVec 9) (bvadd (concat #b0 (|countones#28| state)) (concat #b00000000 (ite (|countones#29| state) #b1 #b0)))) ; $add$countones.sv:37$44_Y
(define-fun |countones#31| ((state |countones_s|)) (_ BitVec 9) (bvand (|countones#30| state) (concat #b0000 (concat (|countones#15| state) #b0000)))) ; $and$countones.sv:38$79_Y
(define-fun |countones#32| ((state |countones_s|)) Bool (= (concat #b00000 (|countones#14| state)) (|countones#31| state))) ; $eq$countones.sv:38$80_Y
; yosys-smt2-assert 0 $assert$countones.sv:37$81 countones.sv:37.52-38.68
(define-fun |countones_a 0| ((state |countones_s|)) Bool (or (|countones#32| state) (not true))) ; $assert$countones.sv:37$81
(define-fun |countones#33| ((state |countones_s|)) Bool (= (concat #b00000 (|countones#14| state)) (|countones#30| state))) ; $eq$countones.sv:37$45_Y
; yosys-smt2-assert 1 $assert$countones.sv:20$46 countones.sv:20.28-37.51
(define-fun |countones_a 1| ((state |countones_s|)) Bool (or (|countones#33| state) (not true))) ; $assert$countones.sv:20$46
(define-fun |countones_a| ((state |countones_s|)) Bool (and
  (|countones_a 0| state)
  (|countones_a 1| state)
))
(define-fun |countones_u| ((state |countones_s|)) Bool true)
(define-fun |countones_i| ((state |countones_s|)) Bool true)
(define-fun |countones_h| ((state |countones_s|)) Bool true)
(define-fun |countones_t| ((state |countones_s|) (next_state |countones_s|)) Bool true) ; end of module countones
; yosys-smt2-topmod countones
; end of yosys output
